SCIP version 5.0.0 [precision: 8 byte] [memory: block] [mode: optimized] [LP solver: NONE] [GitHash: 3bbd232]
Copyright (C) 2002-2017 Konrad-Zuse-Zentrum fuer Informationstechnik Berlin (ZIB)

External codes: 
  Readline EditLine w  GNU library for command line editing (gnu.org/s/readline)
  CppAD 20160000.1     Algorithmic Differentiation of C++ algorithms developed by B. Bell (www.coin-or.org/CppAD)
  ZLIB 1.2.5           General purpose compression library by J. Gailly and M. Adler (zlib.net)
  GMP 6.1.2            GNU Multiple Precision Arithmetic Library developed by T. Granlund (gmplib.org)

user parameter file <scip.set> not found - using default parameters

read problem <../../Split_data/output/breast/3/1_sample_breast.logreg>
============

File name	:	../../Split_data/output/breast/3/1_sample_breast.logreg
Problem name 	:	1_sample_breast
Number of data	:	156
Number of var	:	33
The given data has linear independence

[dim=1] time: 0.003754
[dim=2] time: 0.008079
[dim=3] time: 0.012124
[dim=4] time: 0.015951
[dim=5] time: 0.019986
[dim=6] time: 0.023827
[dim=7] time: 0.027561
[dim=8] Time of forward = 0.031193sec.
AIC: 154.797
k: 7

[dim=33] time: 0.010757
[dim=32] time: 0.020835
[dim=31] time: 0.030555
[dim=30] time: 0.038289
[dim=29] time: 0.048217
[dim=28] time: 0.0573
[dim=27] time: 0.064598
[dim=26] time: 0.072135
[dim=25] time: 0.078093
[dim=24] time: 0.084402
[dim=23] time: 0.090585
[dim=22] time: 0.096376
[dim=21] time: 0.101324
[dim=20] time: 0.106506
[dim=19] time: 0.110668
[dim=18] time: 0.115376
[dim=17] time: 0.119062
[dim=16] Time of backward = 0.124751sec.
AIC: 136.284
k: 17
